c colouring generated by benchmark framework
p edge 701 34130
v 1 13
v 2 11
v 3 13
v 4 2
v 5 5
v 6 17
v 7 14
v 8 17
v 9 21
v 10 17
v 11 5
v 12 14
v 13 6
v 14 15
v 15 5
v 16 18
v 17 11
v 18 2
v 19 7
v 20 6
v 21 15
v 22 15
v 23 7
v 24 16
v 25 16
v 26 3
v 27 20
v 28 21
v 29 21
v 30 18
v 31 5
v 32 5
v 33 18
v 34 3
v 35 22
v 36 19
v 37 1
v 38 3
v 39 10
v 40 20
v 41 11
v 42 18
v 43 9
v 44 16
v 45 15
v 46 13
v 47 0
v 48 2
v 49 6
v 50 10
v 51 4
v 52 4
v 53 2
v 54 4
v 55 13
v 56 4
v 57 18
v 58 8
v 59 2
v 60 10
v 61 12
v 62 5
v 63 4
v 64 18
v 65 13
v 66 17
v 67 11
v 68 16
v 69 17
v 70 7
v 71 13
v 72 22
v 73 15
v 74 8
v 75 18
v 76 13
v 77 21
v 78 1
v 79 13
v 80 6
v 81 0
v 82 7
v 83 11
v 84 12
v 85 0
v 86 8
v 87 20
v 88 19
v 89 19
v 90 3
v 91 21
v 92 22
v 93 20
v 94 7
v 95 8
v 96 9
v 97 14
v 98 2
v 99 3
v 100 15
v 101 20
v 102 12
v 103 2
v 104 4
v 105 0
v 106 17
v 107 16
v 108 10
v 109 14
v 110 17
v 111 15
v 112 9
v 113 16
v 114 3
v 115 10
v 116 13
v 117 19
v 118 1
v 119 17
v 120 22
v 121 20
v 122 4
v 123 18
v 124 15
v 125 18
v 126 11
v 127 17
v 128 3
v 129 5
v 130 4
v 131 10
v 132 12
v 133 1
v 134 8
v 135 17
v 136 14
v 137 12
v 138 11
v 139 19
v 140 0
v 141 9
v 142 4
v 143 15
v 144 21
v 145 6
v 146 3
v 147 7
v 148 6
v 149 22
v 150 20
v 151 21
v 152 1
v 153 6
v 154 19
v 155 2
v 156 18
v 157 12
v 158 4
v 159 12
v 160 9
v 161 8
v 162 0
v 163 18
v 164 11
v 165 17
v 166 1
v 167 2
v 168 5
v 169 2
v 170 11
v 171 14
v 172 21
v 173 21
v 174 3
v 175 13
v 176 10
v 177 14
v 178 20
v 179 1
v 180 12
v 181 9
v 182 12
v 183 8
v 184 21
v 185 21
v 186 20
v 187 1
v 188 0
v 189 10
v 190 9
v 191 8
v 192 3
v 193 12
v 194 17
v 195 9
v 196 22
v 197 18
v 198 6
v 199 12
v 200 12
v 201 18
v 202 2
v 203 8
v 204 17
v 205 9
v 206 7
v 207 12
v 208 6
v 209 8
v 210 15
v 211 0
v 212 16
v 213 11
v 214 18
v 215 4
v 216 0
v 217 0
v 218 15
v 219 3
v 220 19
v 221 11
v 222 20
v 223 12
v 224 12
v 225 15
v 226 0
v 227 9
v 228 6
v 229 5
v 230 10
v 231 0
v 232 2
v 233 6
v 234 20
v 235 11
v 236 0
v 237 18
v 238 18
v 239 3
v 240 22
v 241 20
v 242 8
v 243 2
v 244 14
v 245 14
v 246 18
v 247 6
v 248 12
v 249 18
v 250 19
v 251 11
v 252 20
v 253 14
v 254 19
v 255 9
v 256 15
v 257 9
v 258 1
v 259 20
v 260 17
v 261 2
v 262 16
v 263 19
v 264 4
v 265 17
v 266 11
v 267 22
v 268 21
v 269 22
v 270 20
v 271 7
v 272 8
v 273 18
v 274 4
v 275 17
v 276 19
v 277 13
v 278 2
v 279 10
v 280 0
v 281 14
v 282 20
v 283 16
v 284 7
v 285 1
v 286 12
v 287 9
v 288 21
v 289 1
v 290 6
v 291 7
v 292 20
v 293 15
v 294 7
v 295 9
v 296 14
v 297 6
v 298 18
v 299 1
v 300 8
v 301 8
v 302 18
v 303 18
v 304 21
v 305 14
v 306 8
v 307 16
v 308 17
v 309 13
v 310 7
v 311 5
v 312 14
v 313 22
v 314 16
v 315 13
v 316 12
v 317 15
v 318 1
v 319 9
v 320 10
v 321 0
v 322 8
v 323 20
v 324 14
v 325 13
v 326 10
v 327 22
v 328 20
v 329 3
v 330 12
v 331 5
v 332 21
v 333 11
v 334 12
v 335 13
v 336 9
v 337 11
v 338 4
v 339 3
v 340 19
v 341 9
v 342 8
v 343 17
v 344 9
v 345 7
v 346 3
v 347 19
v 348 20
v 349 16
v 350 21
v 351 21
v 352 9
v 353 5
v 354 7
v 355 18
v 356 7
v 357 14
v 358 10
v 359 3
v 360 16
v 361 1
v 362 20
v 363 0
v 364 10
v 365 18
v 366 15
v 367 8
v 368 21
v 369 6
v 370 16
v 371 7
v 372 6
v 373 18
v 374 22
v 375 0
v 376 9
v 377 17
v 378 0
v 379 21
v 380 22
v 381 2
v 382 1
v 383 11
v 384 13
v 385 16
v 386 10
v 387 9
v 388 16
v 389 0
v 390 14
v 391 16
v 392 21
v 393 20
v 394 1
v 395 6
v 396 6
v 397 0
v 398 0
v 399 20
v 400 1
v 401 21
v 402 2
v 403 11
v 404 1
v 405 4
v 406 16
v 407 6
v 408 13
v 409 14
v 410 12
v 411 22
v 412 21
v 413 6
v 414 18
v 415 1
v 416 15
v 417 22
v 418 4
v 419 7
v 420 17
v 421 18
v 422 5
v 423 11
v 424 10
v 425 15
v 426 7
v 427 15
v 428 14
v 429 15
v 430 0
v 431 22
v 432 21
v 433 14
v 434 22
v 435 22
v 436 6
v 437 14
v 438 12
v 439 9
v 440 11
v 441 12
v 442 8
v 443 3
v 444 13
v 445 5
v 446 13
v 447 7
v 448 10
v 449 11
v 450 10
v 451 6
v 452 16
v 453 22
v 454 14
v 455 4
v 456 11
v 457 14
v 458 0
v 459 5
v 460 11
v 461 2
v 462 5
v 463 8
v 464 1
v 465 18
v 466 1
v 467 19
v 468 4
v 469 10
v 470 7
v 471 3
v 472 16
v 473 2
v 474 19
v 475 10
v 476 6
v 477 19
v 478 13
v 479 3
v 480 7
v 481 1
v 482 22
v 483 22
v 484 20
v 485 22
v 486 10
v 487 5
v 488 0
v 489 2
v 490 17
v 491 10
v 492 3
v 493 15
v 494 0
v 495 14
v 496 1
v 497 16
v 498 4
v 499 4
v 500 10
v 501 5
v 502 19
v 503 8
v 504 2
v 505 10
v 506 19
v 507 4
v 508 18
v 509 11
v 510 9
v 511 9
v 512 16
v 513 19
v 514 2
v 515 16
v 516 15
v 517 21
v 518 3
v 519 3
v 520 5
v 521 3
v 522 5
v 523 19
v 524 19
v 525 11
v 526 9
v 527 20
v 528 9
v 529 22
v 530 8
v 531 21
v 532 14
v 533 1
v 534 16
v 535 7
v 536 21
v 537 10
v 538 8
v 539 2
v 540 19
v 541 5
v 542 3
v 543 7
v 544 12
v 545 3
v 546 3
v 547 14
v 548 10
v 549 1
v 550 21
v 551 1
v 552 5
v 553 16
v 554 12
v 555 7
v 556 12
v 557 12
v 558 7
v 559 17
v 560 18
v 561 1
v 562 17
v 563 4
v 564 3
v 565 1
v 566 2
v 567 16
v 568 3
v 569 7
v 570 22
v 571 19
v 572 12
v 573 22
v 574 17
v 575 22
v 576 8
v 577 6
v 578 0
v 579 3
v 580 3
v 581 19
v 582 9
v 583 16
v 584 9
v 585 4
v 586 7
v 587 4
v 588 17
v 589 14
v 590 22
v 591 10
v 592 10
v 593 11
v 594 13
v 595 10
v 596 19
v 597 20
v 598 5
v 599 7
v 600 16
v 601 6
v 602 12
v 603 16
v 604 15
v 605 1
v 606 5
v 607 9
v 608 15
v 609 19
v 610 7
v 611 5
v 612 14
v 613 11
v 614 3
v 615 4
v 616 2
v 617 12
v 618 4
v 619 13
v 620 5
v 621 16
v 622 17
v 623 14
v 624 14
v 625 8
v 626 15
v 627 5
v 628 22
v 629 4
v 630 22
v 631 15
v 632 11
v 633 19
v 634 11
v 635 16
v 636 18
v 637 15
v 638 18
v 639 8
v 640 7
v 641 1
v 642 18
v 643 6
v 644 3
v 645 22
v 646 4
v 647 17
v 648 10
v 649 4
v 650 0
v 651 1
v 652 21
v 653 15
v 654 10
v 655 8
v 656 19
v 657 7
v 658 5
v 659 2
v 660 8
v 661 2
v 662 11
v 663 0
v 664 13
v 665 9
v 666 17
v 667 4
v 668 2
v 669 2
v 670 9
v 671 19
v 672 16
v 673 15
v 674 17
v 675 16
v 676 19
v 677 13
v 678 22
v 679 12
v 680 12
v 681 11
v 682 8
v 683 22
v 684 8
v 685 17
v 686 10
v 687 2
v 688 5
v 689 4
v 690 18
v 691 21
v 692 0
v 693 15
v 694 5
v 695 0
v 696 15
v 697 0
v 698 17
v 699 6
v 700 10
v 701 19
